objective value:                                   -3
t_n_7                                               1 	(obj:-1)
t_n_934                                             1 	(obj:-1)
t_n_1032                                            1 	(obj:-1)
